c Reduced graph for p18 generated by Cyril Grelier
p edge 35 143
e 1 2
e 1 6
e 1 9
e 1 10
e 1 14
e 1 23
e 2 6
e 2 9
e 2 16
e 2 20
e 2 21
e 2 22
e 2 29
e 3 8
e 3 9
e 3 13
e 3 15
e 3 24
e 3 28
e 3 30
e 3 33
e 3 34
e 4 13
e 4 14
e 4 17
e 4 18
e 4 19
e 4 22
e 4 32
e 4 34
e 5 6
e 5 19
e 5 23
e 5 24
e 5 25
e 5 26
e 5 29
e 5 30
e 5 31
e 6 9
e 6 24
e 6 26
e 6 31
e 7 12
e 7 20
e 7 26
e 7 27
e 7 28
e 7 32
e 7 33
e 8 9
e 8 13
e 8 16
e 8 17
e 8 30
e 8 31
e 8 33
e 8 35
e 9 13
e 9 30
e 9 33
e 10 11
e 10 12
e 10 14
e 10 18
e 10 21
e 10 23
e 11 12
e 11 15
e 11 18
e 11 21
e 11 25
e 11 27
e 11 35
e 12 18
e 12 21
e 12 28
e 12 32
e 13 14
e 13 22
e 13 30
e 13 32
e 13 33
e 14 22
e 14 23
e 14 32
e 15 24
e 15 25
e 15 27
e 15 28
e 15 34
e 15 35
e 16 17
e 16 20
e 16 21
e 16 22
e 16 29
e 16 31
e 16 35
e 17 18
e 17 19
e 17 31
e 17 34
e 17 35
e 18 19
e 18 21
e 18 34
e 19 23
e 19 25
e 19 29
e 19 30
e 19 34
e 20 21
e 20 22
e 20 26
e 20 27
e 20 29
e 20 33
e 21 22
e 21 29
e 22 29
e 22 32
e 23 25
e 23 29
e 23 30
e 24 26
e 24 28
e 24 31
e 24 34
e 25 27
e 25 29
e 25 30
e 25 35
e 26 27
e 26 31
e 26 33
e 27 33
e 27 35
e 28 32
e 28 34
e 29 30
e 30 33
e 31 35
